data/exact/exact_058.gr
p tdp 50 98
1 2
1 5
1 6
1 7
1 8
2 3
2 4
3 7
3 40
4 37
4 6
4 7
4 40
5 8
5 9
5 10
6 37
6 38
6 39
6 40
7 8
7 40
7 10
8 40
9 14
9 42
10 38
10 39
10 40
11 12
11 15
11 16
12 13
12 14
13 16
13 20
14 41
15 17
15 18
15 19
16 42
17 20
17 19
17 21
18 20
18 43
18 44
19 21
19 44
20 43
21 49
21 43
22 23
22 24
22 27
23 24
23 25
23 26
24 28
24 25
25 45
25 27
26 49
26 50
26 46
27 45
27 47
27 48
28 29
28 30
29 31
29 32
30 33
30 47
30 48
30 32
31 33
31 34
32 33
32 35
32 34
32 36
33 35
33 36
34 35
34 36
37 38
37 39
38 39
38 40
39 41
41 42
43 44
44 50
45 46
46 49
46 50
47 48
