solutions/best/exact/exact_058.sol
10
39
4
2
40
40
4
1
5
5
5
20
13
11
0
46
13
44
44
17
15
20
27
42
30
27
44
24
27
46
29
34
34
30
33
32
32
6
7
42
38
39
14
18
21
25
23
27
47
26
26
